1000 3598.0 4042.0 4530.2 4976.0 5518.0
1500 2825.0 3598.0 4194.1 4909.0 5157.0
2000 2577.0 2931.0 3654.1 3958.0 5128.0
2500 2577.0 2828.0 3494.1 3957.0 5128.0
3000 2577.0 2828.0 3465.1 3957.0 5040.0
3500 2577.0 2828.0 3197.7 3491.0 4978.0
4000 2319.0 2828.0 3109.1 3491.0 4486.0
4500 2319.0 2828.0 3096.8 3491.0 4486.0
5000 2319.0 2577.0 2936.0 3431.0 3649.0
5500 1307.0 2319.0 2567.1 2802.0 3986.0
6000 1307.0 2319.0 2567.1 2802.0 3986.0
6500 1307.0 2319.0 2546.8 2755.0 3986.0
7000 1307.0 2319.0 2351.0 2599.0 2755.0
7500 1307.0 2214.0 2334.9 2608.0 2755.0
8000 1273.0 2214.0 2252.0 2411.0 2586.0
8500 1273.0 2155.0 2218.7 2384.0 2577.0
9000 1307.0 2155.0 2221.1 2384.0 2577.0
9500 1227.0 2150.0 2190.3 2328.0 2577.0
10000 1227.0 2150.0 2220.7 2384.0 2755.0
10500 1227.0 2155.0 2238.2 2384.0 2755.0
11000 1227.0 2155.0 2238.2 2384.0 2755.0
11500 1227.0 2155.0 2235.3 2384.0 2755.0
12000 1227.0 1941.0 2114.4 2328.0 2755.0
12500 1227.0 2073.0 2152.2 2328.0 2755.0
13000 1227.0 2073.0 2103.1 2328.0 2514.0
13500 1227.0 2059.0 2094.0 2328.0 2514.0
14000 1008.0 1753.0 1970.8 2328.0 2514.0
14500 1008.0 1753.0 1957.6 2214.0 2411.0
15000 953.0 1753.0 1903.5 2073.0 2411.0
15500 953.0 1753.0 1903.5 2073.0 2411.0
16000 953.0 1753.0 1911.1 2101.0 2691.0
16500 953.0 1650.0 1872.4 2073.0 2755.0
17000 953.0 1650.0 1872.4 2073.0 2755.0
17500 953.0 1650.0 1872.4 2073.0 2755.0
18000 953.0 1650.0 1872.4 2073.0 2755.0
18500 953.0 1650.0 1872.4 2073.0 2755.0
19000 953.0 1650.0 1837.9 2073.0 2410.0
19500 953.0 1650.0 1899.1 2150.0 2755.0
20000 953.0 1649.0 1872.3 2073.0 2755.0
20500 953.0 1599.0 1785.3 2073.0 2214.0
21000 953.0 1649.0 1790.3 2073.0 2214.0
21500 953.0 1599.0 1785.3 2073.0 2214.0
22000 953.0 1649.0 1790.3 2073.0 2214.0
22500 953.0 1599.0 1785.3 2073.0 2214.0
23000 953.0 1593.0 1782.3 2073.0 2214.0
23500 953.0 1599.0 1756.2 2044.0 2214.0
24000 953.0 1599.0 1756.2 2044.0 2214.0
24500 953.0 1599.0 1758.6 2044.0 2214.0
25000 953.0 1599.0 1758.6 2044.0 2214.0
25500 953.0 1599.0 1758.6 2044.0 2214.0
26000 953.0 1599.0 1758.6 2044.0 2214.0
26500 953.0 1599.0 1740.1 2029.0 2073.0
27000 953.0 1465.0 1723.1 2073.0 2150.0
27500 953.0 1465.0 1723.1 2073.0 2150.0
28000 953.0 1465.0 1723.1 2073.0 2150.0
28500 953.0 1465.0 1723.1 2073.0 2150.0
29000 953.0 1465.0 1716.1 2073.0 2150.0
29500 953.0 1465.0 1716.1 2073.0 2150.0
30000 953.0 1465.0 1689.4 1974.0 2100.0
30500 953.0 1465.0 1689.4 1974.0 2100.0
31000 953.0 1465.0 1659.7 1974.0 2100.0
31500 953.0 1465.0 1659.7 1974.0 2100.0
32000 953.0 1465.0 1659.7 1974.0 2100.0
32500 953.0 1206.0 1633.8 1974.0 2100.0
33000 953.0 1206.0 1633.8 1974.0 2100.0
33500 953.0 1206.0 1633.8 1974.0 2100.0
34000 953.0 1206.0 1633.8 1974.0 2100.0
34500 953.0 1206.0 1572.0 1974.0 2100.0
35000 953.0 1206.0 1572.0 1974.0 2100.0
35500 953.0 1129.0 1516.8 1974.0 2100.0
36000 953.0 1093.0 1503.1 1974.0 2100.0
36500 953.0 1093.0 1488.1 1974.0 2100.0
37000 953.0 1129.0 1545.6 1974.0 2100.0
37500 884.0 1092.0 1522.5 1974.0 2100.0
38000 884.0 1092.0 1514.5 1894.0 2100.0
38500 884.0 953.0 1502.8 1974.0 2100.0
39000 884.0 953.0 1503.9 1974.0 2100.0
39500 884.0 1092.0 1522.5 1974.0 2100.0
40000 884.0 1092.0 1522.5 1974.0 2100.0
40500 884.0 989.0 1508.5 1974.0 2100.0
41000 884.0 989.0 1434.0 1728.0 2100.0
41500 884.0 989.0 1472.0 1753.0 2100.0
42000 884.0 989.0 1472.0 1753.0 2100.0
42500 884.0 989.0 1472.0 1753.0 2100.0
43000 884.0 989.0 1512.2 1974.0 2100.0
43500 884.0 989.0 1512.2 1974.0 2100.0
44000 884.0 989.0 1512.2 1974.0 2100.0
44500 884.0 989.0 1519.2 2044.0 2100.0
45000 722.0 989.0 1496.1 2044.0 2100.0
45500 884.0 989.0 1472.7 1753.0 2100.0
46000 884.0 989.0 1469.1 1753.0 2100.0
46500 518.0 953.0 1422.0 1753.0 2100.0
47000 518.0 953.0 1400.4 1753.0 2100.0
47500 418.0 953.0 1360.4 1753.0 2100.0
48000 518.0 953.0 1401.5 1753.0 2100.0
48500 518.0 953.0 1448.0 1839.0 2100.0
49000 518.0 953.0 1435.7 1839.0 2100.0
49500 518.0 953.0 1399.0 1896.0 2100.0
50000 518.0 953.0 1399.0 1896.0 2100.0
50500 518.0 953.0 1399.0 1896.0 2100.0
51000 518.0 953.0 1399.0 1896.0 2100.0
51500 518.0 953.0 1399.0 1896.0 2100.0
52000 518.0 953.0 1391.9 1896.0 2073.0
52500 518.0 953.0 1391.8 1896.0 2073.0
53000 518.0 953.0 1391.8 1896.0 2073.0
53500 518.0 953.0 1398.9 1896.0 2100.0
54000 518.0 953.0 1398.9 1896.0 2100.0
54500 518.0 953.0 1399.0 1896.0 2100.0
55000 518.0 953.0 1399.0 1896.0 2100.0
55500 518.0 953.0 1392.0 1826.0 2100.0
56000 518.0 953.0 1399.0 1896.0 2100.0
56500 518.0 953.0 1399.0 1896.0 2100.0
57000 518.0 953.0 1370.5 1753.0 2100.0
57500 518.0 953.0 1324.6 1753.0 2100.0
58000 518.0 953.0 1346.0 1896.0 2073.0
58500 518.0 953.0 1353.1 1896.0 2100.0
59000 518.0 953.0 1300.6 1753.0 2073.0
59500 518.0 953.0 1300.6 1753.0 2073.0
60000 518.0 953.0 1300.6 1753.0 2073.0
60500 518.0 953.0 1327.4 1860.0 2073.0
61000 518.0 953.0 1298.9 1753.0 2073.0
61500 518.0 953.0 1298.9 1753.0 2073.0
62000 518.0 953.0 1292.4 1688.0 2073.0
62500 518.0 953.0 1292.4 1688.0 2073.0
63000 518.0 953.0 1292.4 1688.0 2073.0
63500 518.0 953.0 1292.4 1688.0 2073.0
64000 518.0 953.0 1292.4 1688.0 2073.0
64500 518.0 953.0 1253.4 1753.0 2073.0
65000 518.0 953.0 1298.3 1753.0 2073.0
65500 518.0 953.0 1298.9 1753.0 2073.0
66000 518.0 953.0 1298.9 1753.0 2073.0
66500 518.0 953.0 1298.9 1753.0 2073.0
67000 518.0 953.0 1298.9 1753.0 2073.0
67500 518.0 953.0 1298.9 1753.0 2073.0
68000 518.0 953.0 1298.9 1753.0 2073.0
68500 518.0 953.0 1294.3 1707.0 2073.0
69000 518.0 953.0 1294.3 1707.0 2073.0
69500 518.0 953.0 1294.3 1707.0 2073.0
70000 518.0 953.0 1294.3 1707.0 2073.0
70500 518.0 953.0 1294.3 1707.0 2073.0
71000 518.0 953.0 1294.3 1707.0 2073.0
71500 518.0 953.0 1294.3 1707.0 2073.0
72000 518.0 953.0 1294.3 1707.0 2073.0
72500 518.0 953.0 1294.3 1707.0 2073.0
73000 518.0 953.0 1294.3 1707.0 2073.0
73500 518.0 953.0 1294.3 1707.0 2073.0
74000 518.0 953.0 1294.3 1707.0 2073.0
74500 518.0 953.0 1238.7 1611.0 2073.0
75000 518.0 953.0 1278.2 1707.0 2073.0
75500 518.0 953.0 1242.2 1707.0 2073.0
76000 518.0 953.0 1223.4 1586.0 2073.0
76500 518.0 953.0 1186.5 1586.0 1707.0
77000 518.0 953.0 1220.3 1611.0 1707.0
77500 518.0 953.0 1206.3 1611.0 1707.0
78000 518.0 953.0 1218.7 1611.0 1707.0
78500 518.0 953.0 1201.7 1586.0 1707.0
79000 518.0 953.0 1198.7 1586.0 1707.0
79500 518.0 953.0 1204.7 1611.0 1707.0
80000 518.0 953.0 1198.7 1586.0 1707.0
80500 518.0 953.0 1198.7 1586.0 1707.0
81000 518.0 953.0 1204.7 1611.0 1707.0
81500 518.0 953.0 1204.7 1611.0 1707.0
82000 518.0 953.0 1204.7 1611.0 1707.0
82500 518.0 953.0 1204.7 1611.0 1707.0
83000 518.0 953.0 1204.7 1611.0 1707.0
83500 518.0 953.0 1179.3 1586.0 1704.0
84000 518.0 953.0 1179.3 1586.0 1704.0
84500 518.0 953.0 1179.9 1586.0 1704.0
85000 474.0 953.0 1175.5 1586.0 1704.0
85500 474.0 953.0 1175.5 1586.0 1704.0
86000 474.0 953.0 1175.5 1586.0 1704.0
86500 474.0 953.0 1175.5 1586.0 1704.0
87000 474.0 953.0 1172.9 1585.0 1704.0
87500 474.0 953.0 1169.0 1546.0 1704.0
88000 474.0 953.0 1169.0 1546.0 1704.0
88500 474.0 953.0 1169.0 1546.0 1704.0
89000 474.0 953.0 1133.1 1546.0 1704.0
89500 474.0 953.0 1116.1 1453.0 1704.0
90000 474.0 953.0 1118.3 1519.0 1704.0
90500 474.0 953.0 1118.3 1519.0 1704.0
91000 474.0 953.0 1118.3 1519.0 1704.0
91500 474.0 953.0 1103.4 1376.0 1704.0
92000 474.0 953.0 1103.4 1376.0 1704.0
92500 474.0 953.0 1117.7 1519.0 1704.0
93000 474.0 953.0 1117.7 1519.0 1704.0
93500 474.0 953.0 1103.4 1376.0 1704.0
94000 474.0 953.0 1103.4 1376.0 1704.0
94500 474.0 953.0 1103.4 1376.0 1704.0
95000 474.0 953.0 1103.4 1376.0 1704.0
95500 474.0 953.0 1097.4 1376.0 1644.0
96000 474.0 953.0 1097.4 1376.0 1644.0
96500 474.0 953.0 1097.4 1376.0 1644.0
97000 474.0 921.0 1086.5 1376.0 1698.0
97500 474.0 921.0 1087.1 1376.0 1704.0
98000 474.0 921.0 1087.1 1376.0 1704.0
98500 474.0 921.0 1087.1 1376.0 1704.0
99000 474.0 921.0 1087.1 1376.0 1704.0
99500 474.0 921.0 1087.1 1376.0 1704.0
100000 474.0 921.0 1087.1 1376.0 1704.0
100500 474.0 921.0 1087.1 1376.0 1704.0
101000 474.0 921.0 1087.1 1376.0 1704.0
101500 474.0 921.0 1083.6 1376.0 1704.0
102000 474.0 629.0 1054.4 1376.0 1704.0
102500 474.0 629.0 1057.9 1376.0 1704.0
103000 474.0 629.0 1057.9 1376.0 1704.0
103500 474.0 629.0 1010.2 1332.0 1704.0
104000 474.0 629.0 1010.2 1332.0 1704.0
104500 474.0 629.0 1011.9 1332.0 1704.0
105000 474.0 629.0 1011.9 1332.0 1704.0
105500 474.0 629.0 981.7 1332.0 1704.0
106000 474.0 629.0 1002.3 1332.0 1608.0
106500 474.0 629.0 1001.0 1332.0 1704.0
107000 474.0 629.0 1004.7 1332.0 1704.0
107500 474.0 629.0 1004.7 1332.0 1704.0
108000 474.0 629.0 1004.7 1332.0 1704.0
108500 474.0 629.0 1004.7 1332.0 1704.0
109000 474.0 629.0 982.3 1108.0 1704.0
109500 474.0 629.0 982.3 1108.0 1704.0
110000 474.0 629.0 982.3 1108.0 1704.0
110500 474.0 629.0 979.9 1084.0 1704.0
111000 474.0 629.0 982.3 1108.0 1704.0
111500 474.0 629.0 982.3 1108.0 1704.0
112000 474.0 629.0 982.3 1108.0 1704.0
112500 474.0 629.0 982.3 1108.0 1704.0
113000 474.0 629.0 982.3 1108.0 1704.0
113500 474.0 629.0 978.9 1074.0 1704.0
114000 474.0 629.0 978.9 1074.0 1704.0
114500 474.0 629.0 942.0 1027.0 1704.0
115000 474.0 629.0 942.0 1027.0 1704.0
115500 474.0 629.0 942.0 1027.0 1704.0
116000 474.0 629.0 935.4 1027.0 1638.0
116500 474.0 629.0 941.5 1027.0 1638.0
117000 474.0 629.0 932.5 1027.0 1586.0
117500 474.0 629.0 932.5 1027.0 1586.0
118000 474.0 629.0 932.5 1027.0 1586.0
118500 474.0 629.0 932.5 1027.0 1586.0
119000 474.0 629.0 932.5 1027.0 1586.0
119500 474.0 629.0 932.5 1027.0 1586.0
120000 474.0 629.0 909.2 989.0 1586.0
120500 474.0 629.0 909.1 989.0 1586.0
121000 474.0 629.0 887.9 953.0 1548.0
121500 474.0 629.0 889.0 953.0 1586.0
122000 474.0 629.0 905.5 953.0 1586.0
122500 474.0 629.0 883.1 953.0 1586.0
123000 474.0 619.0 889.1 989.0 1586.0
123500 474.0 619.0 854.1 953.0 1586.0
124000 474.0 619.0 857.7 989.0 1586.0
124500 474.0 526.0 846.3 989.0 1586.0
125000 474.0 526.0 833.8 989.0 1586.0
125500 474.0 523.0 847.3 989.0 1548.0
126000 474.0 523.0 864.9 989.0 1586.0
126500 474.0 619.0 861.5 899.0 1586.0
127000 474.0 619.0 861.5 899.0 1586.0
127500 474.0 619.0 876.3 989.0 1586.0
128000 474.0 619.0 876.3 989.0 1586.0
128500 474.0 619.0 876.3 989.0 1586.0
129000 474.0 619.0 876.3 989.0 1586.0
129500 474.0 619.0 876.3 989.0 1586.0
130000 474.0 619.0 876.3 989.0 1586.0
130500 474.0 619.0 876.6 989.0 1586.0
131000 474.0 619.0 876.6 989.0 1586.0
131500 474.0 619.0 855.3 989.0 1548.0
132000 474.0 619.0 855.3 989.0 1548.0
132500 474.0 619.0 855.3 989.0 1548.0
133000 474.0 619.0 848.4 920.0 1548.0
133500 474.0 619.0 848.4 920.0 1548.0
134000 474.0 619.0 848.4 920.0 1548.0
134500 474.0 619.0 848.4 920.0 1548.0
135000 474.0 619.0 848.4 920.0 1548.0
135500 474.0 619.0 848.4 920.0 1548.0
136000 474.0 619.0 848.4 920.0 1548.0
136500 474.0 619.0 848.4 920.0 1548.0
137000 474.0 619.0 848.4 920.0 1548.0
137500 474.0 619.0 848.4 920.0 1548.0
138000 474.0 619.0 843.6 920.0 1548.0
138500 474.0 619.0 843.6 920.0 1548.0
139000 474.0 619.0 843.6 920.0 1548.0
139500 474.0 619.0 843.6 920.0 1548.0
140000 474.0 619.0 843.6 920.0 1548.0
140500 474.0 619.0 843.6 920.0 1548.0
141000 474.0 619.0 843.6 920.0 1548.0
141500 474.0 619.0 843.6 920.0 1548.0
142000 474.0 619.0 843.6 920.0 1548.0
142500 474.0 619.0 834.3 920.0 1455.0
143000 474.0 619.0 843.6 920.0 1548.0
143500 474.0 619.0 843.6 920.0 1548.0
144000 474.0 619.0 843.6 920.0 1548.0
144500 474.0 619.0 843.6 920.0 1548.0
145000 474.0 619.0 843.6 920.0 1548.0
145500 474.0 619.0 843.6 920.0 1548.0
146000 474.0 619.0 843.6 920.0 1548.0
146500 474.0 619.0 834.3 920.0 1548.0
147000 474.0 619.0 834.3 920.0 1548.0
147500 474.0 619.0 834.3 920.0 1548.0
148000 474.0 619.0 834.3 920.0 1548.0
148500 474.0 619.0 834.3 920.0 1548.0
149000 474.0 619.0 834.3 920.0 1548.0
149500 474.0 619.0 834.3 920.0 1548.0
150000 474.0 619.0 834.3 920.0 1548.0
150500 474.0 619.0 834.3 920.0 1548.0
151000 474.0 526.0 824.7 920.0 1548.0
151500 474.0 619.0 834.3 920.0 1548.0
152000 474.0 619.0 834.3 920.0 1548.0
152500 474.0 619.0 825.3 920.0 1458.0
153000 474.0 619.0 825.3 920.0 1458.0
153500 474.0 619.0 834.3 920.0 1548.0
154000 474.0 619.0 834.3 920.0 1548.0
154500 474.0 619.0 834.3 920.0 1548.0
155000 474.0 619.0 834.3 920.0 1548.0
155500 474.0 619.0 834.3 920.0 1548.0
156000 474.0 619.0 834.3 920.0 1548.0
156500 474.0 619.0 834.3 920.0 1548.0
157000 474.0 619.0 834.3 920.0 1548.0
157500 474.0 619.0 834.3 920.0 1548.0
158000 474.0 619.0 834.3 920.0 1548.0
158500 474.0 619.0 834.3 920.0 1548.0
159000 418.0 619.0 823.5 920.0 1548.0
159500 418.0 619.0 823.5 920.0 1548.0
160000 474.0 619.0 834.3 920.0 1548.0
160500 474.0 619.0 834.3 920.0 1548.0
161000 474.0 619.0 834.3 920.0 1548.0
161500 474.0 619.0 834.3 920.0 1548.0
162000 474.0 619.0 821.5 920.0 1548.0
162500 474.0 619.0 816.7 920.0 1548.0
163000 474.0 619.0 816.7 920.0 1548.0
163500 474.0 619.0 816.7 920.0 1548.0
164000 474.0 619.0 816.7 920.0 1548.0
164500 474.0 619.0 785.3 920.0 1234.0
165000 474.0 619.0 816.7 920.0 1548.0
165500 474.0 619.0 834.3 920.0 1548.0
166000 474.0 619.0 830.2 920.0 1548.0
166500 474.0 544.0 795.8 920.0 1548.0
167000 474.0 544.0 795.8 920.0 1548.0
167500 474.0 544.0 795.8 920.0 1548.0
168000 474.0 544.0 795.8 920.0 1548.0
168500 474.0 544.0 795.8 920.0 1548.0
169000 474.0 544.0 795.8 920.0 1548.0
169500 474.0 544.0 795.8 920.0 1548.0
170000 474.0 544.0 795.8 920.0 1548.0
170500 474.0 544.0 795.8 920.0 1548.0
171000 474.0 544.0 789.7 920.0 1548.0
171500 474.0 544.0 789.7 920.0 1548.0
172000 474.0 544.0 789.7 920.0 1548.0
172500 474.0 544.0 795.8 920.0 1548.0
173000 474.0 544.0 795.8 920.0 1548.0
173500 474.0 544.0 795.8 920.0 1548.0
174000 474.0 544.0 795.8 920.0 1548.0
174500 474.0 544.0 795.8 920.0 1548.0
175000 474.0 544.0 777.0 920.0 1492.0
175500 474.0 544.0 782.6 920.0 1548.0
176000 474.0 544.0 782.6 920.0 1548.0
176500 474.0 544.0 782.6 920.0 1548.0
177000 474.0 544.0 782.6 920.0 1548.0
177500 474.0 544.0 782.6 920.0 1548.0
178000 474.0 544.0 782.6 920.0 1548.0
178500 474.0 544.0 782.6 920.0 1548.0
179000 474.0 544.0 782.6 920.0 1548.0
179500 474.0 544.0 782.6 920.0 1548.0
180000 474.0 544.0 782.6 920.0 1548.0
180500 474.0 544.0 782.6 920.0 1548.0
181000 474.0 544.0 782.6 920.0 1548.0
181500 474.0 544.0 782.6 920.0 1548.0
182000 474.0 544.0 778.7 899.0 1548.0
182500 474.0 544.0 782.6 920.0 1548.0
183000 474.0 544.0 782.6 920.0 1548.0
183500 474.0 544.0 782.6 920.0 1548.0
184000 474.0 544.0 782.6 920.0 1548.0
184500 474.0 544.0 777.4 920.0 1548.0
185000 474.0 544.0 777.4 920.0 1548.0
185500 474.0 544.0 777.4 920.0 1548.0
186000 474.0 544.0 777.4 920.0 1548.0
186500 474.0 544.0 755.0 920.0 1324.0
187000 474.0 544.0 755.0 920.0 1324.0
187500 474.0 544.0 755.0 920.0 1324.0
188000 474.0 544.0 755.0 920.0 1324.0
188500 474.0 544.0 755.0 920.0 1324.0
189000 474.0 544.0 777.4 920.0 1548.0
189500 474.0 544.0 777.4 920.0 1548.0
190000 474.0 544.0 777.4 920.0 1548.0
190500 474.0 544.0 775.4 913.0 1548.0
191000 474.0 544.0 775.4 913.0 1548.0
191500 474.0 544.0 777.4 920.0 1548.0
192000 474.0 544.0 771.3 920.0 1548.0
192500 474.0 544.0 777.4 920.0 1548.0
193000 474.0 544.0 777.4 920.0 1548.0
193500 474.0 544.0 777.4 920.0 1548.0
194000 474.0 544.0 777.4 920.0 1548.0
194500 474.0 544.0 768.4 920.0 1458.0
195000 474.0 544.0 768.4 920.0 1458.0
195500 474.0 544.0 768.4 920.0 1458.0
196000 474.0 544.0 768.4 920.0 1458.0
196500 474.0 544.0 768.4 920.0 1458.0
197000 474.0 544.0 768.4 920.0 1458.0
197500 474.0 544.0 768.4 920.0 1458.0
198000 474.0 544.0 768.4 920.0 1458.0
198500 474.0 544.0 768.4 920.0 1458.0
199000 474.0 544.0 768.4 920.0 1458.0
199500 474.0 544.0 768.4 920.0 1458.0
200000 474.0 544.0 768.4 920.0 1458.0
200500 474.0 544.0 768.4 920.0 1458.0
201000 474.0 544.0 768.4 920.0 1458.0
201500 474.0 544.0 768.4 920.0 1458.0
202000 474.0 544.0 768.4 920.0 1458.0
202500 474.0 544.0 768.4 920.0 1458.0
203000 474.0 544.0 768.4 920.0 1458.0
203500 474.0 544.0 768.4 920.0 1458.0
204000 474.0 544.0 768.4 920.0 1458.0
204500 474.0 544.0 772.7 920.0 1548.0
205000 474.0 544.0 772.7 920.0 1548.0
205500 474.0 544.0 771.3 920.0 1548.0
206000 474.0 544.0 771.3 920.0 1548.0
206500 474.0 544.0 771.3 920.0 1548.0
207000 418.0 544.0 751.5 920.0 1458.0
207500 418.0 544.0 751.5 920.0 1458.0
208000 418.0 544.0 751.5 920.0 1458.0
208500 418.0 544.0 751.5 920.0 1458.0
209000 418.0 544.0 751.5 920.0 1458.0
209500 418.0 544.0 751.5 920.0 1458.0
210000 474.0 544.0 762.3 920.0 1458.0
210500 474.0 544.0 762.3 920.0 1458.0
211000 474.0 544.0 762.3 920.0 1458.0
211500 474.0 544.0 762.3 920.0 1458.0
212000 474.0 544.0 771.3 920.0 1548.0
212500 440.0 526.0 760.1 920.0 1540.0
213000 440.0 526.0 760.1 920.0 1540.0
213500 440.0 526.0 760.1 920.0 1540.0
214000 440.0 526.0 760.9 920.0 1548.0
214500 440.0 526.0 753.0 841.0 1548.0
215000 440.0 526.0 753.0 841.0 1548.0
215500 440.0 526.0 753.0 841.0 1548.0
216000 440.0 526.0 753.0 841.0 1548.0
216500 440.0 526.0 753.0 841.0 1548.0
217000 440.0 526.0 734.8 841.0 1548.0
217500 440.0 526.0 734.8 841.0 1548.0
218000 440.0 526.0 734.8 841.0 1548.0
218500 440.0 526.0 718.6 841.0 1548.0
219000 440.0 526.0 718.6 841.0 1548.0
219500 440.0 526.0 718.6 841.0 1548.0
220000 440.0 526.0 718.6 841.0 1548.0
220500 440.0 526.0 718.6 841.0 1548.0
221000 440.0 526.0 718.6 841.0 1548.0
221500 419.0 526.0 713.1 841.0 1548.0
222000 419.0 526.0 713.1 841.0 1548.0
222500 419.0 526.0 713.1 841.0 1548.0
223000 419.0 526.0 713.1 841.0 1548.0
223500 419.0 526.0 713.1 841.0 1548.0
224000 419.0 526.0 698.1 841.0 1398.0
224500 440.0 526.0 703.6 841.0 1398.0
225000 440.0 526.0 703.6 841.0 1398.0
225500 440.0 526.0 703.6 841.0 1398.0
